5310
1500000
999667
999667
999667
998763
998763
998763
998763
998763
998763
998763
998763
995797
995797
995797
995797
995797
995797
995797
995453
995453
995453
995453
995453
995453
995453
995453
995453
995453
995453
995453
991622
991622
991622
991622
991622
991622
991622
988216
988216
988216
988216
988216
988216
988216
988216
988216
988216
988216
988216
987752
987752
987752
987752
987752
987752
987752
987752
987752
987752
987752
987752
987752
987752
987752
987752
985020
985020
985020
985020
985020
985020
985020
985020
985020
985020
985020
985020
985020
985020
985020
985020
985020
985020
985020
984921
984921
984921
984921
984921
984921
984438
984438
983687
983687
983687
983687
983687
983687
983687
983687
983687
983687
983170
983170
983170
983170
983170
983170
983170
983170
983170
983170
983170
983170
983170
983170
983170
983170
983170
983170
983170
981541
981541
981541
981541
981541
981541
981541
981541
981541
981541
981541
981541
981541
981541
981541
981541
981541
981541
981541
981541
980959
980959
980959
980959
980959
980959
980959
980959
980959
980959
980959
980959
980959
980959
980959
980959
980959
980361
980361
980361
980361
980361
980361
980361
980361
980361
980361
980361
980361
980361
980361
980361
974812
974812
974812
974812
974812
974812
974812
974812
974812
974241
974241
974241
974241
974241
974241
974241
974241
974241
974241
974241
974241
974241
974241
974241
974241
974241
971004
971004
971004
971004
971004
971004
971004
971004
971004
970824
970824
970824
970824
970824
970824
970824
970824
970824
959834
959834
959119
959119
957708
957708
957708
957708
957708
957708
957708
957708
957708
957708
957708
957708
957708
957708
957708
957708
957708
954600
954600
954600
954600
954600
954600
954600
954600
954600
954600
954600
950860
950860
950860
950860
950860
947591
947591
947591
947591
947591
947591
947591
947591
947591
947591
947591
947591
947338
947338
947338
947338
947338
947338
947338
947338
947338
947338
947338
947338
947338
947338
947338
947338
947338
947338
947338
947338
944248
944248
944248
944248
944248
944248
944248
944002
944002
944002
944002
944002
944002
944002
944002
944002
944002
944002
939049
939049
939049
939049
938867
938867
938867
938867
938867
938867
938867
938867
937779
937779
937779
937779
937779
937779
937121
937121
937121
937121
937121
937121
937121
937121
937121
937121
937121
937121
935337
935337
935337
935337
935337
935337
935337
935337
935337
935337
935337
935337
935337
935337
935337
935337
934891
934891
934891
934891
934891
934891
934891
934891
934891
934846
934846
934846
934846
934846
934846
934846
934846
934846
934846
934846
934846
934846
930139
930139
930139
930139
930139
930139
930139
930139
929790
929790
929790
929790
929790
929790
929790
929790
929790
929790
929790
929790
929790
929790
929790
929790
929790
929790
929790
929790
928226
927484
927484
927484
927484
927484
927484
927484
927484
927484
927484
927484
927484
927484
927484
927484
927039
927039
927039
927039
927039
927039
927039
927039
927039
927039
927039
927039
927039
927039
927039
927039
925723
925723
925723
925723
925723
925723
925723
925723
925723
925723
925723
925723
925723
925723
923966
923966
923966
923966
923966
923966
923966
923966
923966
923966
923966
923966
923966
923966
923966
923966
923966
923966
923966
922779
922779
922779
922779
922779
922779
918609
918609
918609
918609
918609
918609
918609
918609
918609
918609
918609
918609
918609
918609
916874
916874
916874
916874
916874
916874
916874
916874
916874
916874
916874
916874
916874
916874
916874
916874
916874
916874
914872
914872
914872
914872
914872
914872
911725
911725
911725
911725
911725
911725
911725
911725
911725
911725
911725
911725
911725
911725
911725
911725
911110
911110
911110
910858
910858
910858
910858
910858
910858
910858
910858
910858
910858
910858
910858
910858
910858
910858
910858
910858
905873
905873
904119
904119
904119
904119
904119
904119
904119
904119
904119
904119
904119
904119
904119
904119
904119
904119
904119
904119
904075
903736
903736
903736
903736
903736
903736
903736
903736
903736
903736
903736
903736
903736
903736
903736
903736
903736
903736
899384
899384
898052
898052
898052
898052
898052
898052
898052
898052
896710
896710
896710
896710
896710
896710
896710
896710
896710
896710
896710
896710
896710
896710
896710
896710
894241
894241
894241
894241
894241
894241
894241
894241
892946
892946
892946
892946
892946
892946
892946
892407
892407
892407
892407
892407
892407
892407
892407
892407
892407
892407
892407
892407
892407
892407
892407
892407
892407
892407
891927
891927
891927
891927
891927
891927
891927
891927
891927
891927
891927
891927
891927
891807
891807
891807
891807
891807
891807
891807
891807
891807
891807
891807
891807
891807
891807
891807
891807
891807
891807
891807
891593
891593
891593
891593
891593
891593
891593
891593
891593
891593
891593
891593
891593
891593
891593
891593
891593
891593
891593
891593
890849
890849
890849
890849
890849
890849
890849
890849
890849
890849
890849
890849
890849
890849
890849
882277
882277
882277
882277
882277
882277
879788
879788
879788
879788
879788
879788
879788
879788
879788
879788
879788
879788
879788
879788
879788
879788
879788
879788
879788
874219
874219
874219
874219
874219
874219
874219
874219
874219
874219
874219
874219
873924
873924
873924
873924
873924
873924
873924
873924
873924
873924
873924
873924
871492
871492
871492
871492
871492
871492
871492
871492
871381
871381
871381
871381
871381
871381
871381
871381
871381
871381
871381
871381
871381
871381
867777
867777
867777
867410
867410
867410
867410
867410
867410
867410
867410
867410
867410
867410
867410
867410
867410
866686
866686
866686
866686
866686
866686
866686
866686
866686
866686
866686
866686
866686
866686
864985
864985
864985
864985
864985
864985
864985
864985
864985
864985
864985
864985
864985
864985
864985
864985
864985
864985
864985
864088
863310
863310
863310
863310
863310
863310
863310
863310
863310
863310
863298
863298
863298
863298
863298
863298
863298
863298
863298
863274
863274
863274
863274
863274
863274
862522
862522
862522
862522
862522
862522
862522
862522
861479
861479
861479
861479
861479
861479
861479
861479
861479
861479
861479
861479
861479
857824
857824
857824
857824
857824
857824
856946
856946
856946
856946
856946
856946
856946
856946
856946
856946
856946
856946
856946
856946
856946
856649
856649
856649
856649
856649
856407
856407
856407
856407
855827
855827
855197
855197
855197
855197
855197
855197
855197
855197
855197
855197
855197
855197
855197
855197
855197
850711
850711
850711
850711
850711
850711
850711
850711
850711
850711
850711
850711
849212
849212
849212
849212
849212
848802
848802
848802
848802
848802
848802
848802
847714
847714
847714
847714
847714
847714
847714
847714
847714
847714
847714
847714
847714
847714
847714
847714
847714
847714
847049
847049
847049
847049
844384
844384
844384
844384
844370
844370
844370
844370
844370
844370
843557
843557
843557
843557
843557
843557
843557
843557
843557
843557
843557
843557
843557
843557
843557
843557
843557
843557
843557
843516
843516
843516
843516
843516
843516
843516
843516
843516
843516
843516
843516
839617
839617
839617
839617
839617
839617
839617
839617
839617
839617
839617
839617
839617
838007
838007
838007
838007
838007
838007
838007
838007
833370
833370
833370
833370
833370
833370
833370
832896
832896
832896
832896
832896
832896
832896
832896
832896
830592
830592
830592
830592
830592
830592
830592
830592
830592
830592
830592
830592
830592
830592
830592
830592
830566
830566
830566
830566
830566
830566
830566
830566
830566
830566
830566
830566
829842
829842
829842
829842
829842
829842
829842
829842
829842
829842
829842
829842
829842
829842
829842
828924
828924
828924
828924
828924
828924
828924
828924
828924
828376
828376
827651
827651
827651
827651
827651
827651
827651
827651
827651
827651
827651
827651
827651
827651
827557
827557
827557
827557
827239
827239
827239
827239
827239
823771
823771
823771
823771
823771
822886
822886
822886
822886
822886
822886
822886
822886
822886
822886
822886
822886
822886
822886
822886
822886
822886
820003
817958
817958
817958
817958
817958
811895
811895
811226
811226
811226
811226
811226
811226
811226
811226
811226
811226
811226
811226
810326
810326
810326
810326
810326
810326
809485
809485
809485
809485
809485
809485
809485
809485
808703
808703
808703
808703
808703
808703
807043
807043
807043
807043
807043
807043
807043
803624
803624
803624
803624
803624
803624
803624
803060
803060
803060
803060
803060
803060
803060
803060
803060
803060
803060
801652
801652
801652
801652
801652
800791
800791
799060
799060
799060
799060
799060
799060
799060
799060
799060
799060
795196
795196
795196
795196
795196
795196
795196
795196
795196
795196
795196
795196
795196
795196
795196
792954
792954
792954
792954
792954
792954
792954
792954
792954
792954
792954
792954
792954
792954
792954
792878
792878
792878
792878
792878
792878
792878
792878
792878
792878
792878
792878
792878
792878
792878
792878
792878
792878
792878
792326
792326
792326
792326
792326
792326
790788
790788
790788
790788
790788
790788
790788
790692
790692
790692
790692
790692
790692
790692
790692
790692
790692
790692
790692
790692
790692
786570
786570
786570
786570
786570
786570
786570
786570
786570
786570
786570
786570
784557
784557
784557
784557
784557
784557
784557
784557
784557
784557
784557
784557
784557
784557
784557
784557
784064
784064
784064
784064
784064
784064
784064
784064
784064
784064
784064
784064
784064
784064
784064
784064
784064
784064
784064
784064
781595
781595
781595
781595
781595
781595
781595
781595
781595
781595
781595
781595
778466
778466
778466
778466
778466
778466
778466
778466
778466
778466
778466
778466
778466
778466
778074
778074
776704
776704
776704
776704
776704
776704
776704
776704
776704
776704
776704
776704
776499
776499
776499
776499
776499
776499
776499
776499
776499
776499
776499
776499
776499
776499
776499
776499
776499
776499
776499
776499
775469
775469
775469
775469
775469
775469
775469
775469
775469
775469
775286
775286
775286
775286
775286
775286
775286
775286
775286
775286
775286
775286
775286
775286
775286
775286
775286
775286
774586
774586
774586
774586
774586
774586
774586
774586
774586
774586
774586
774586
774586
774586
774586
768284
768284
768284
768284
768284
768284
768284
768284
768284
768284
768284
768284
768284
768284
768284
764695
764695
764695
764695
764695
764695
764695
764695
764695
764695
764695
764695
764695
764695
764695
762261
762261
762261
762261
762261
762261
762261
762261
762261
762261
762261
762261
756699
756699
756699
756699
756699
756699
756699
756699
756699
756699
756699
756699
756699
756699
756699
756699
756699
756699
756699
756653
756653
756653
756653
756653
756653
756653
756653
755742
755742
755742
755742
755742
755742
755742
755214
755214
755214
755214
755214
755214
755214
755214
755214
755214
755214
755214
755214
755214
753564
753564
753564
753564
753564
753564
753564
753564
753564
753564
753564
753564
753564
753564
753564
753564
753564
753564
752895
752895
752895
752895
752895
752288
752288
752288
752288
752288
752288
752288
752288
752288
752288
752288
752288
752288
752288
752288
752288
752288
752288
752288
752288
751953
751953
751953
751953
751953
751953
751953
751953
751953
751953
751953
751953
751953
751953
751953
751953
751953
751953
751953
751953
751696
751696
751696
751696
751696
751696
751696
751696
751696
751696
751696
751696
751696
751696
751696
751696
751696
751696
751696
749356
749356
749356
749356
749356
749356
747837
747837
747837
747837
747837
747837
747837
747837
747837
746502
746502
746502
746502
746502
746502
746502
746502
745797
745797
745797
745797
745797
745797
745797
745797
745797
745797
744900
744900
744900
744900
744900
744900
744900
744900
744900
739349
739349
739349
739349
739349
739349
739349
739349
739349
739349
739349
739349
739349
739349
739349
739349
739349
738227
738227
738227
738227
738227
738227
738227
738227
738227
738227
738227
738227
738227
738227
738227
738227
738180
738180
738180
738180
738180
738180
738180
738180
735384
735384
735384
735384
735384
735384
735384
735384
735384
735384
735384
735384
734067
734067
734067
734067
734067
734067
734067
733908
733908
733908
733908
733908
733908
733908
733908
733908
733908
733908
733908
733908
733908
729511
729511
729511
729511
729511
729511
729227
729227
729227
729227
729227
729227
729227
729227
729227
729227
729227
729227
729227
729227
729227
729227
729227
729227
729227
729227
729023
729023
729023
729023
729023
729023
729023
729023
729023
729023
729023
729023
729023
729023
729023
729023
729023
729023
729023
729023
727366
727366
727366
727366
727366
727366
727366
727366
727366
727366
727366
727366
727366
727366
727366
727366
727366
727291
727291
727291
727291
727291
727291
727291
727291
727291
727291
727291
727291
727291
727291
726183
726183
726183
726183
726183
726183
726183
726183
726183
726183
726183
726183
726183
726183
724527
724527
724527
724527
724527
724527
724527
724527
724527
724527
724197
723254
723254
723254
723254
723254
723254
723254
723254
723254
723254
723254
723254
723254
720195
720195
720195
720195
720195
720195
720195
720195
720195
720195
720195
720195
720195
720195
720195
720195
720195
720195
720195
720195
720036
720036
720036
720036
720036
720036
718582
718582
718582
718582
718582
718582
718582
718582
718582
718582
718582
718582
718582
718582
718582
718582
718582
718582
718582
718582
718549
718549
718549
718549
718549
718549
718549
718549
718549
718549
718549
718549
718280
717948
717948
717948
717948
717948
717948
717948
717948
717948
717948
717948
717430
717430
717430
716096
716096
716096
716096
716096
716096
716096
716096
716096
716096
716096
716096
716096
716096
716096
716096
716096
716096
716096
713553
713553
713553
713553
713553
713553
713553
713460
713460
713460
713460
713460
713460
713460
713460
713460
713460
713460
713460
713460
713460
713460
713460
713460
712859
712859
712859
712859
712859
712859
712859
712859
712859
712859
712363
712363
712363
712363
712363
712363
712363
712363
712363
712363
712363
712363
712363
712363
712363
712363
712363
712363
711943
711943
711943
711943
711943
711943
711910
711910
711910
711910
711910
711910
711910
711910
711910
711910
711719
711719
711719
710417
710417
710417
710417
710417
710417
710417
710417
710417
710161
710161
709540
709540
709540
709540
709540
709540
709540
709540
709540
709540
709540
709540
709540
709540
709124
708917
708917
708917
708917
708917
708917
708917
708917
708879
708879
708879
708879
708879
708879
708879
708879
708879
708879
708879
708879
708879
708879
708879
708879
706192
706192
706192
706192
706192
706192
706192
706192
706192
706192
706192
706192
706192
706192
706192
706192
703340
703340
703340
703340
703340
703340
703340
703340
703340
703340
703340
703340
703143
703143
703143
703143
703143
703143
703143
703143
703143
700273
700273
700273
700273
700273
700273
700273
700273
700273
700272
700272
700272
700272
700272
700272
700272
700272
700272
700272
700272
700272
700272
699865
699865
699865
699865
699865
699865
699865
699865
699865
699865
699865
699865
699865
699865
699865
699865
699865
699865
699865
699865
699829
699829
699829
699829
699829
699829
699829
699829
699829
699829
699829
699829
699537
699537
699537
699537
699537
699537
699537
699537
699537
698837
697024
697024
697024
697024
697024
697024
697024
697024
697024
697024
697024
697024
697024
697024
697024
697024
697024
690827
690827
690827
690827
690827
690827
690827
690827
690827
690827
690827
690827
689578
689578
689578
689578
689578
689578
689578
689578
689578
689578
689578
689578
689578
689578
689578
689578
689578
689578
689578
689578
686856
686856
686856
686856
686856
686856
686856
686856
686856
686856
686856
686856
686856
686856
684786
684786
684786
684786
684786
684786
684786
684786
684786
684786
684786
684786
684786
684786
684786
684786
684786
684786
684786
684786
684475
684475
684475
684475
684475
684475
684475
684475
684475
684475
684475
684475
684475
683879
683879
683879
683879
683879
683879
683879
683879
683879
683879
680271
680271
680271
680271
680271
680271
680271
680271
679409
677092
677092
677092
677092
677092
677092
677092
677092
677092
677092
677092
677092
677092
677092
677092
677092
677092
677092
677092
677092
677064
677064
677064
677064
677064
677064
674639
674639
674639
674639
674639
674639
674639
674639
672452
672452
672452
672452
672452
672452
672452
672452
672452
672452
672452
671781
671781
671781
671781
671781
670937
670937
670937
670937
670937
670937
670937
670937
670937
670937
670390
670390
670390
670390
670390
670390
670390
670390
670390
670390
670390
670390
670390
670390
670390
670390
670390
668857
668857
668857
666580
666580
666580
666580
666580
666580
666580
666580
666580
665738
665738
665738
665738
665738
665738
665738
665738
665738
665738
665738
665738
665738
665738
665738
665240
665240
665240
665240
665240
665240
665240
665240
665240
665240
665240
665240
665240
665240
665240
665240
665240
665240
664834
664834
664834
664834
664834
664834
664834
664834
664834
664834
664834
664834
662178
662178
662178
660795
660795
660795
660795
660795
660795
660795
660795
660795
660795
660795
660795
660795
660089
660089
660089
660089
660089
660089
660089
660089
660089
660089
660089
660089
660089
660089
660089
660089
660089
660089
660089
660089
660077
660077
660077
660077
660077
660077
660077
660077
660077
660077
660077
660077
660077
660077
660077
660077
659744
659744
659744
659744
659744
659744
659744
658914
658914
658914
658914
658914
658914
658914
658914
658914
658914
658914
658914
658735
658735
656921
656921
656921
656921
656921
656921
656921
656921
656921
656921
656921
656921
655912
655912
655912
655912
655752
655752
655752
655752
655752
655752
655752
655752
655752
655752
655752
655752
655752
655752
655752
655752
655752
655752
655752
655384
655384
655384
655384
655384
655384
655384
655384
655384
654371
654371
654371
650821
650821
650821
650821
650821
650821
650821
650821
650821
650821
650821
650821
650821
650821
650821
650821
650821
650821
650327
650327
650327
650327
650296
650296
650296
650296
650296
650296
650296
650296
650296
650296
650296
650296
650159
650159
650159
650159
650159
650159
650159
650159
650159
650159
650159
650159
650159
650159
650159
650159
650159
650159
650159
648251
648251
648251
648251
648251
648251
648251
648251
648251
648251
648251
648251
648251
648251
648251
648251
648251
648251
648251
648251
644032
644032
644032
644032
644032
644032
644032
644032
644032
642472
642472
642472
642472
642472
642472
642472
642472
642472
642472
642472
642472
642472
642472
642472
642472
639384
639384
639384
639384
639384
639384
639384
639384
639384
639384
639384
638992
638992
638992
638992
638992
638992
638992
638992
638992
638992
638992
638992
638992
638992
638992
638992
638992
638992
637265
637265
636226
636226
636226
636226
636226
636226
636226
636226
636188
636188
636000
636000
636000
636000
636000
636000
636000
636000
636000
636000
636000
636000
636000
635555
635555
635555
635555
635555
635555
635555
635555
635555
635555
635555
633982
633982
633982
633982
633982
633982
633982
633982
633982
633982
633982
633982
633982
633982
633982
633982
633982
633982
633982
633845
633845
633845
633845
633845
633845
633845
633845
632753
632753
632753
632753
632753
632753
632753
632753
632605
632605
632605
632605
632605
632605
632605
632605
632605
632605
632605
632605
632605
632605
632605
631525
631525
631525
631525
629939
629939
629939
629939
629939
629939
629939
629939
629939
629939
629939
629939
629939
629939
629939
629939
629939
629939
629939
628714
628714
628714
628714
628714
628714
628714
628714
628714
628714
628714
628714
628714
628714
627651
627651
627651
627651
627651
627223
627223
627223
627223
627223
627223
627223
627223
627223
627223
627223
627223
627223
627223
627223
627223
627223
627223
627223
627109
627109
627109
627109
627109
627109
627109
627109
627109
627109
627109
627109
627109
627109
627109
627109
627109
627109
625382
625382
625382
625382
625382
625382
625382
625382
625382
625382
625382
625382
625382
625382
625382
625382
625382
625382
625382
620117
620117
620117
620117
620117
620117
620117
620117
620117
620117
617220
617220
617220
617220
617220
617220
617220
617220
617220
617220
617220
617220
617220
617220
615757
615757
614723
614723
614723
614723
614723
614723
614723
614723
614723
614723
614723
614723
614723
614723
614723
614723
614723
614663
614663
614663
614663
614663
614663
614663
614663
613835
613835
613835
613835
613835
613835
613835
613835
609676
609676
609676
609676
609266
609266
609266
609266
609266
609266
609266
609266
609266
609266
609266
609266
609266
609266
609266
609266
609266
609266
609266
607359
607359
607359
606456
606456
606456
606456
606456
606456
606456
606456
606456
606456
606456
606456
606456
606456
606456
606456
606456
606456
606456
606456
605713
605713
605713
605713
605713
605713
605713
605713
605713
605713
603013
603013
603013
603013
603013
603013
603013
603013
602236
602236
602236
602236
602236
602236
602236
602236
602236
602236
602236
598651
598651
598651
598651
598651
598651
598651
598651
598651
598651
598651
598651
598651
598651
598651
598651
595369
595369
595369
595369
595369
595369
595369
595369
590426
590426
588149
588149
588149
588149
588149
588149
588149
584342
583997
583997
582326
582326
582326
582326
582326
582326
582326
580401
580401
580401
579647
579647
579647
579647
579647
579647
579647
579647
579647
579647
579647
579647
579060
579060
579060
579060
579060
579060
579060
579060
579060
579060
579060
579060
579060
579060
579060
579060
579060
579060
577512
576279
576279
576279
576279
576279
576279
576279
576279
575177
575177
575177
575177
575177
575177
575177
575177
575177
575177
575177
575177
575177
575177
575177
575177
575177
575177
575177
574308
574308
574308
574308
574308
574308
574308
574308
574308
574308
574308
574308
574308
574308
574308
574308
574308
573211
573211
573211
573211
573211
573211
573211
573211
573211
573211
573211
572521
572521
572521
572521
572521
572521
572521
572521
572521
572521
572521
572155
572155
572155
572155
572155
572155
572155
568967
568967
567101
567101
567101
566541
566541
566541
566541
566541
566541
566541
566541
566541
566541
566541
566541
566541
566541
555284
555284
555284
555284
555284
555284
555284
555284
552105
552105
552105
552105
552105
552105
552105
552105
552105
552105
552105
551877
551877
551877
551877
551748
551748
551748
551748
551748
551748
551748
551748
551748
551748
551748
551748
551748
551748
551748
551748
551748
551748
550825
550825
550825
550825
550825
550825
550825
550825
550825
550825
549956
549956
549956
549956
549956
549956
549956
549956
549956
549956
549956
549956
549956
549956
549956
549956
549956
549956
546359
546359
546359
546359
546359
546359
546359
546359
546359
546359
546359
546359
546359
546359
546359
546359
546359
546359
546359
546359
543789
543789
543789
543789
543789
543789
543789
543789
543789
543789
543789
543789
543789
543789
543789
543789
543789
543789
541632
541632
541632
541632
541632
541632
541632
541632
538069
538069
538069
538069
538069
538069
536353
536353
536353
536353
536353
536353
536353
536353
536353
536353
536353
536353
536353
536353
536353
535648
535648
535648
535648
535648
534624
534624
534624
534624
534624
534624
534624
534624
534624
534624
534624
534624
534624
534624
534624
534624
534624
534624
534624
534343
534343
534343
534343
534343
534343
534343
534343
534343
534343
534343
534343
534343
534343
534343
534343
534343
534343
533198
533198
533198
533198
533198
533198
533198
533198
533198
533198
533198
533198
533198
530618
530618
530618
530618
530618
530618
530618
530618
530618
530618
530618
530618
530618
530618
530618
530618
530618
528481
528481
528481
528481
528481
528481
528481
528481
528481
528481
528481
528481
528481
527124
527124
527124
527124
527124
527124
527124
527124
527124
527124
527124
527124
527124
527124
527124
527124
523584
523584
523584
523584
523584
523584
523584
523584
523584
523584
523584
523584
523584
523466
523466
523466
523466
523466
523466
523466
523466
523466
523466
523466
523466
523175
523175
523175
523175
523175
523175
522647
522647
522647
522647
522647
522647
522647
522647
522647
522647
520027
520027
519969
519969
519969
519969
519275
519275
519275
519275
519275
519275
519275
519275
519275
519275
519275
519275
519275
519275
518587
518438
518438
518438
518438
518438
518438
514527
514527
514527
514527
514527
514527
514527
514527
514527
514527
514527
514527
514527
514527
514527
514527
512887
512887
512887
512887
512887
512887
512887
512887
512887
512887
512887
512887
512887
512887
512887
512887
512783
512783
512783
512783
512783
512783
512783
510748
510748
510748
510748
510748
510748
510748
510748
510748
510748
510748
510748
510748
510748
510748
510401
510401
510401
510401
510401
510401
510401
510401
510401
510121
510121
510121
510121
510121
510121
510121
507976
507976
507976
507976
507976
507976
507976
507976
507976
507918
507918
507918
507918
507918
507918
507918
507918
507918
507918
507918
507249
507249
507249
507249
507249
507249
507249
507249
507249
507249
507249
507249
507249
507249
507249
507249
507249
507249
505339
505339
505339
505339
505339
505339
505339
505339
505339
505339
501710
501710
501710
501710
501710
501710
498196
498196
498196
497309
497309
497309
497309
497309
497309
497309
497309
497309
497309
497309
496368
496368
496368
496368
496368
496368
496368
496368
496368
496368
496368
496368
496368
496368
496368
496368
496368
496368
496368
495141
491595
491595
491595
491595
491595
491595
491595
491595
491595
491595
491595
491595
491595
491595
491595
491595
489873
489873
489873
489873
489873
489873
489873
489873
489873
489873
489873
489873
489873
489873
489873
489873
488431
488431
488431
488431
488431
488431
487472
487472
487472
487472
487472
487472
487472
487472
487472
487472
487472
487338
487338
487338
487338
487338
487338
486576
486576
486576
486576
486576
486576
484789
484789
484789
484789
484789
484789
484789
481932
481932
481932
481932
481932
481932
480232
480232
480232
480232
479172
479172
479172
479172
479172
479172
479172
479172
479172
479172
479172
479172
479172
479172
479172
479172
479172
479172
479172
479172
478784
478784
478784
478784
478784
478784
478259
478259
478259
478259
478259
478259
478259
478259
478259
478259
472318
472318
472318
472318
472318
472318
472318
472318
472318
472318
472318
472318
472318
472318
472318
472318
472318
472318
472318
471623
471623
471623
471623
471623
471623
471623
471623
471623
471623
471623
471623
471623
471623
471623
471623
468508
468508
468508
468508
468508
468333
468333
468333
459944
459439
459439
459439
459439
459439
459439
459439
459439
459439
459439
459439
459439
459439
459439
456666
456666
456666
456666
456666
456666
456666
455040
455040
455040
455040
455040
455040
455040
455040
455040
455040
455040
455040
453674
453674
453674
453674
453674
453674
453674
453674
452870
452870
452870
452870
452870
452870
452870
452870
452870
452870
452295
452295
452295
449587
449587
449587
449587
449587
449587
449587
448507
448507
448507
448507
448507
448507
448507
448507
448507
448507
448507
448271
448271
448271
448271
448271
448271
446867
446867
446867
446867
446867
446867
446867
446867
446867
446867
446867
446867
446867
446867
446281
445787
445787
445787
445787
445787
445787
444716
444716
444716
444716
442370
442370
442370
442370
442370
442370
442370
442370
442370
442370
442370
442370
442370
442370
442370
442370
442370
442370
439467
439467
439467
439467
439467
439467
439467
439467
439467
439467
439467
439467
439467
439467
439467
439467
437727
437727
437727
437727
437238
437238
437238
437238
437238
437238
437238
437238
437238
437238
437238
437238
437238
437238
437238
437238
437238
437238
437238
437197
437197
437197
437197
437197
437197
437197
437197
437197
437197
437197
437197
436679
436679
436679
436679
436679
436679
436679
436679
436679
436679
436679
436679
436679
436679
436679
436679
435517
435517
434392
434392
434392
434392
434392
434392
434392
434392
434392
434392
434392
434392
434392
434392
434392
434392
434392
434392
434392
434392
430450
430450
430450
430450
430450
430450
430450
430450
430450
430450
430450
430450
430450
430450
430450
430450
430450
430450
430450
425363
425363
425363
425363
425363
425363
425363
425363
425363
425363
425363
425363
425363
425363
425363
425363
425363
425363
425363
425363
424137
424137
424137
424137
424137
424137
424137
424137
424137
424137
423892
423892
421978
421978
421978
421978
421978
421978
421978
421978
420997
420997
420997
420997
420997
420997
420997
420997
419653
419653
419653
419653
419653
419653
419653
416498
416498
416498
416498
416498
416498
416498
416498
416498
416498
414274
414274
414274
414274
414274
414274
414274
414274
414029
414029
414029
412585
412585
412513
412513
412513
412513
412513
412513
412513
412513
412513
412513
412513
412513
412513
412513
412513
412513
412513
412513
410930
410930
410930
410930
410930
410930
410930
410930
410930
410930
410031
410031
410031
410031
410031
410031
410031
410031
410031
410031
410031
410031
410031
410031
410031
410031
410031
410031
410031
410031
409704
409704
409704
409704
409704
409704
409704
409704
409704
409704
409704
409704
409292
409292
409292
409292
409292
409292
409292
408244
408244
407652
407652
407652
406263
406263
406263
406263
406263
405469
401023
401023
401023
401023
400151
398455
398455
398455
398455
398455
398455
398455
398455
398455
398455
398455
398455
398455
397739
396936
396936
396064
396064
396064
396064
396064
396064
393158
393158
393158
393158
393158
393158
393158
393158
393158
392150
392150
392150
392150
392150
392150
392150
392150
392150
392150
392150
392150
392150
392150
392123
392123
392123
392123
392123
392123
392123
392123
392123
392123
392123
391801
391801
391801
391801
389752
389752
389752
389752
389752
389752
389752
389752
389347
389347
389347
389347
389347
389347
389347
389347
389347
389347
389347
389347
389347
389347
389347
389347
389347
389347
388602
388602
388602
388602
388602
388602
388602
388602
388602
388602
388602
388602
388602
388602
388602
388602
388602
388602
388602
388602
387968
387968
387968
383380
383380
383380
383380
383380
383380
383380
383380
383380
383380
383380
383380
383380
383049
383049
383049
383049
383049
383049
383049
383049
383049
383049
383049
383049
383049
383049
383049
383049
383049
381794
381794
381794
381794
381794
381794
381794
381794
381794
381794
381794
381794
381794
381794
378532
376639
376639
376639
376639
376516
376516
376516
376516
376516
376516
376516
376516
376516
376516
376516
376516
376516
376516
376516
376516
375253
375253
375253
375253
375253
375253
375253
375253
375253
375253
375253
375253
375253
375253
375253
375253
375253
373623
373623
373623
373623
373623
373623
373623
373623
373623
373623
373623
373623
373623
373623
371224
371224
371224
371224
371224
371224
371224
371224
371224
371224
371224
371224
371224
371224
371224
371224
367398
367398
367398
367398
367398
367398
367398
367398
367398
367398
363206
363206
363206
363206
363206
363206
358047
358047
357569
357569
357569
357569
357569
357569
357569
357569
357569
357569
357569
357569
357569
357569
357569
357569
357569
357569
357569
357053
354950
354950
354950
354950
354950
354950
354950
354950
354950
354950
354950
354950
354950
354950
354950
353079
353079
353079
353079
353079
353079
353079
353079
353079
353079
353079
353079
353079
353079
353079
353079
353079
353079
353079
353079
352344
352344
352344
352344
352344
352344
352344
352344
352344
352344
352344
352344
352344
352344
352344
352344
352344
352344
351951
351951
351951
351951
351951
351951
351951
351951
351951
351951
351951
351529
351529
351529
351529
350898
350898
350898
350898
350898
350898
350898
350898
350898
350898
350898
350898
350898
350898
350898
350898
350898
350898
349330
349330
349330
349330
349330
349330
349330
349330
349330
349330
349330
349330
349330
343983
343983
343983
337131
337131
337131
337131
337131
337131
337131
337131
337131
337131
337131
337131
337131
337131
337131
337131
336829
336829
336829
336829
336829
336829
336829
336829
336829
336829
336829
336829
336622
336622
336622
336622
336622
336622
336622
336622
336622
336622
336622
334447
334447
334447
334447
334447
334447
334447
334447
334447
334447
334447
334447
334447
334447
334447
334447
330641
330641
330641
330641
330641
330641
330641
330641
330641
330641
330641
330641
330641
330038
330038
330038
330038
330038
330038
330038
330038
329151
329151
329151
329151
329151
329151
329151
329151
329151
329151
329151
329151
329151
328505
328505
328505
328505
327764
327764
327764
327764
327764
327764
327764
327764
327764
327764
327764
327764
326455
326455
326455
326455
326455
326455
326455
316676
316676
316676
316676
316676
316676
316676
316676
316676
316676
316676
316676
316676
316676
316676
316676
316676
316676
316676
316676
314619
314619
314619
314619
314619
314619
314619
314619
314619
314619
314619
314619
313105
312891
312891
312891
312891
312891
312891
312891
312891
312891
312238
312238
312238
312238
311877
311877
311877
311877
311877
311877
311877
311877
311877
311877
311877
311877
311877
311877
311877
311877
310808
310808
310808
310808
310808
310808
310808
310808
310808
310808
310808
308709
308709
308709
305721
305721
305721
305721
305164
305164
305164
305164
305164
305164
305164
305164
305164
305164
305164
305164
305164
305164
305164
305164
304676
304676
304676
304676
304676
304676
304676
304676
304676
304676
304676
304676
304676
304676
303867
303867
303867
303867
303867
303867
303867
303867
303867
303867
298531
298531
298531
298531
298531
298531
298531
298531
298531
298531
298531
298531
298531
298531
298531
297169
297169
297169
297169
297169
297169
296761
296761
296761
296761
296761
296761
296761
296761
296761
296761
296761
296761
296761
296761
296352
296352
296352
296352
296352
296352
296352
296352
296352
296352
296352
296352
296352
296352
295441
295441
295441
295441
295441
295441
295441
295441
295441
295441
295441
295441
295441
295441
295441
295441
295441
295441
295441
295441
289647
289647
289647
289647
289647
289647
289647
289647
289647
289647
289647
289647
289647
289647
289647
289647
289647
289647
288379
288379
288379
288379
288379
288379
288379
288379
288379
288379
288379
288379
286575
286575
286575
286575
286575
286575
282878
282878
282878
282878
282878
282878
274190
274190
274190
274190
274190
274190
274190
271983
271983
271983
271983
271983
271983
271983
271983
271983
271983
271983
271983
271983
271983
271983
271983
270091
270091
270091
270091
270091
270091
270091
270091
270091
270091
270091
266868
266868
266868
266868
266868
266868
266868
266868
266868
266868
266868
266868
266868
266868
266868
265324
265324
264592
264592
264492
264492
264492
264492
264492
264492
264492
262258
261250
261250
261250
261250
260238
260238
260238
260238
260238
260238
260238
260238
260238
260238
260238
260238
260238
260238
260238
260238
260238
260238
260238
259943
259943
259943
259943
259943
259943
258915
258915
258915
258915
258915
258915
258915
258915
258915
258915
258915
258915
258915
258915
258915
258915
257466
257466
257466
257466
257466
257466
257466
257466
257466
257466
257466
257466
257466
257466
257466
257466
257466
257466
257466
257429
257429
257429
257429
257429
257429
257429
257429
257429
257429
255362
255362
255362
255362
255362
255362
255362
254080
254080
254080
254080
254080
254080
254080
254080
254080
254080
254080
254080
254080
254080
254080
254080
254080
254080
254080
252694
252694
252694
252694
252694
252694
252694
252694
251399
251399
251399
251399
251399
251399
251399
251399
251399
251399
251399
251399
251399
251399
251399
251399
251399
251399
251399
247525
247525
247525
247525
247525
247525
247525
247439
247439
247439
247439
247439
247439
247439
247439
247439
247439
247439
247439
247439
247439
247439
247316
247316
247316
247316
247316
247316
247316
247316
247316
247316
247316
240324
240324
240324
240324
239533
239533
239533
239533
239533
239533
239533
239533
239533
239533
239533
239533
236118
236053
236053
236053
236053
236053
236053
236053
236053
236053
236053
236053
236053
236053
236053
236053
229200
229200
229200
229200
229200
229200
224091
224091
224091
224091
224091
224091
224091
224091
224046
224046
224046
224046
224046
224046
224046
224046
224046
224046
224046
224046
224046
224046
223139
223139
223139
223139
223139
223139
223139
223139
223139
223139
223139
223139
223139
223139
220211
220211
220211
220211
220211
220211
220211
220211
220211
220211
220211
220211
219752
219752
219752
219752
219752
219752
219752
219752
219752
219752
219752
219752
219752
219752
219752
219752
219752
219487
216939
216939
216939
216939
216939
216939
216939
216939
216939
216939
214660
214660
214660
214660
214660
214660
214660
214660
214660
214660
214660
214660
214660
214660
214660
214660
214660
214660
214660
213777
213777
213777
213777
213777
213777
213777
213777
213777
213777
213777
213777
213777
213777
208818
208818
208818
208818
208818
208818
208818
208818
208818
208818
208818
208818
208818
208818
208818
208818
207381
207381
207381
207381
207381
205888
205888
205888
205888
205888
205888
205888
205888
205888
205888
205888
205888
205888
205888
205888
205888
205888
205888
204892
204892
204892
204892
204892
204892
204892
204892
204892
203795
203795
203795
203795
203795
203795
203795
203795
203795
203795
203795
203795
203795
203795
203795
202584
201036
201036
201036
201036
201036
